% Logging successfully configured
%%%mzn-stat: initTime=0.095148651
%%%mzn-stat: objective=967
%%%mzn-stat: nodes=2590
%%%mzn-stat: restarts=0
%%%mzn-stat: peakDepth=2542
%%%mzn-stat: solveTime=0.089002875
%%%mzn-stat: variables=3325
%%%mzn-stat: propagators=2884
%%%mzn-stat: failures=20
%%%mzn-stat: propagations=10890
%%%mzn-stat: nogoods=20
%%%mzn-stat: numAtomicConstraintsPropagated=0
%%%mzn-stat: circuitNumber1PropagationsTotal=427
%%%mzn-stat: circuitNumber1CircuitConflicts=7
%%%mzn-stat: circuitNumber1AlldiffConflicts=0
%%%mzn-stat: circuitNumber1TotalFixedEdgesAtConflict=875
%%%mzn-stat: circuitNumber1NumberOfConflicts=7
%%%mzn-stat: circuitNumber1GacPrunings=1550
%%%mzn-stat: circuitNumber1PropagationsThatGacPruned=223
%%%mzn-stat: circuitNumber1TotalPruningHallSetSize=2742
%%%mzn-stat: circuitNumber1NumberOfPruningExplanations=1550
%%%mzn-stat: circuitNumber1MaxPruningHallSetSize=44
%%%mzn-stat: circuitNumber1TotalSccSizeAtPruning=1068
%%%mzn-stat: circuitNumber1NumberOfSccPruningCalls=223
%%%mzn-stat: circuitNumber1TotalVarsInvolvedInPruning=1450
%%%mzn-stat: circuitNumber1MaxValuesPrunedFromSingleVar=5
%%%mzn-stat: circuitNumber1HallCircuitChecks=1164
%%%mzn-stat: circuitNumber1HallCircuitPrunings=5
%%%mzn-stat: circuitNumber1CircuitPreventPrunings=119
%%%mzn-stat: AverageConflictSize=4.8
%%%mzn-stat: NumUnitNogoodsLearned=0
%%%mzn-stat: AverageLearnedNogoodLength=27.25
%%%mzn-stat: AverageBacktrackAmount=0
%%%mzn-stat: AverageLbd=11.3
%%%mzn-stat: 2AutonomousSearchNumBackupCalled=2419
%%%mzn-stat: 2AutonomousSearchNumPredicatesRemoved=0
%%%mzn-stat: 2AutonomousSearchNumCalls=2420
%%%mzn-stat: 2AutonomousSearchNumPredicatesAdded=623
%%%mzn-stat: 2AutonomousSearchAverageSizeOfHeap=0.2574380165289256
%%%mzn-stat: 2AutonomousSearchNumAssignedPredicatesEncountered=623
%%%mzn-stat-end
maxleg = 967;
succ = array1d(1..150,[7, 12, 4, 11, 14, 22, 24, 21, 29, 19, 17, 27, 15, 16, 26, 28, 32, 13, 3, 18, 30, 20, 1, 5, 6, 33, 10, 51, 37, 23, 2, 40, 9, 35, 36, 8, 39, 25, 41, 45, 58, 34, 38, 55, 62, 50, 63, 42, 60, 54, 53, 43, 76, 57, 61, 31, 65, 66, 48, 64, 59, 49, 70, 90, 44, 71, 52, 56, 67, 68, 73, 83, 81, 75, 78, 91, 47, 102, 69, 77, 82, 92, 84, 87, 74, 46, 99, 86, 79, 94, 85, 88, 72, 98, 97, 80, 105, 103, 95, 106, 108, 127, 141, 138, 110, 119, 143, 96, 100, 115, 93, 147, 130, 101, 117, 126, 121, 107, 133, 144, 142, 128, 113, 123, 118, 140, 145, 146, 112, 135, 134, 114, 137, 150, 89, 111, 124, 139, 125, 131, 122, 129, 148, 116, 104, 149, 120, 136, 109, 132]);
% time elapsed: 17.38 s
----------
%%%mzn-stat: initTime=0.095148651
%%%mzn-stat: objective=456
%%%mzn-stat: nodes=5065
%%%mzn-stat: restarts=0
%%%mzn-stat: peakDepth=2542
%%%mzn-stat: solveTime=0.171938487
%%%mzn-stat: variables=3325
%%%mzn-stat: propagators=2884
%%%mzn-stat: failures=34
%%%mzn-stat: propagations=16053
%%%mzn-stat: nogoods=34
%%%mzn-stat: numAtomicConstraintsPropagated=0
%%%mzn-stat: circuitNumber1PropagationsTotal=771
%%%mzn-stat: circuitNumber1CircuitConflicts=19
%%%mzn-stat: circuitNumber1AlldiffConflicts=0
%%%mzn-stat: circuitNumber1TotalFixedEdgesAtConflict=2484
%%%mzn-stat: circuitNumber1NumberOfConflicts=19
%%%mzn-stat: circuitNumber1GacPrunings=2964
%%%mzn-stat: circuitNumber1PropagationsThatGacPruned=395
%%%mzn-stat: circuitNumber1TotalPruningHallSetSize=4953
%%%mzn-stat: circuitNumber1NumberOfPruningExplanations=2964
%%%mzn-stat: circuitNumber1MaxPruningHallSetSize=44
%%%mzn-stat: circuitNumber1TotalSccSizeAtPruning=1811
%%%mzn-stat: circuitNumber1NumberOfSccPruningCalls=395
%%%mzn-stat: circuitNumber1TotalVarsInvolvedInPruning=2814
%%%mzn-stat: circuitNumber1MaxValuesPrunedFromSingleVar=5
%%%mzn-stat: circuitNumber1HallCircuitChecks=1782
%%%mzn-stat: circuitNumber1HallCircuitPrunings=11
%%%mzn-stat: circuitNumber1CircuitPreventPrunings=198
%%%mzn-stat: AverageConflictSize=23.735294117647058
%%%mzn-stat: NumUnitNogoodsLearned=0
%%%mzn-stat: AverageLearnedNogoodLength=41.85294117647059
%%%mzn-stat: AverageBacktrackAmount=0
%%%mzn-stat: AverageLbd=25.294117647058822
%%%mzn-stat: 2AutonomousSearchNumBackupCalled=4745
%%%mzn-stat: 2AutonomousSearchNumPredicatesRemoved=0
%%%mzn-stat: 2AutonomousSearchNumCalls=4747
%%%mzn-stat: 2AutonomousSearchNumPredicatesAdded=1414
%%%mzn-stat: 2AutonomousSearchAverageSizeOfHeap=0.3876132294080472
%%%mzn-stat: 2AutonomousSearchNumAssignedPredicatesEncountered=1840
%%%mzn-stat-end
maxleg = 456;
succ = array1d(1..150,[7, 12, 4, 11, 14, 22, 24, 21, 29, 19, 17, 27, 15, 16, 26, 28, 32, 13, 3, 18, 30, 20, 1, 5, 6, 33, 10, 51, 37, 23, 2, 40, 9, 35, 36, 8, 39, 25, 41, 45, 58, 34, 38, 55, 62, 50, 63, 42, 60, 54, 53, 43, 76, 57, 61, 31, 65, 66, 48, 64, 71, 49, 59, 90, 44, 100, 52, 56, 67, 47, 73, 83, 81, 75, 78, 91, 80, 102, 69, 96, 82, 77, 84, 87, 74, 46, 68, 86, 79, 94, 85, 88, 72, 98, 70, 89, 95, 103, 93, 106, 108, 127, 141, 138, 97, 119, 143, 130, 92, 99, 118, 120, 131, 101, 110, 105, 115, 136, 133, 144, 117, 128, 134, 123, 107, 116, 145, 146, 142, 135, 150, 114, 137, 132, 113, 129, 124, 139, 125, 126, 122, 121, 148, 140, 104, 149, 112, 111, 109, 147]);
% time elapsed: 17.45 s
----------
%%%mzn-stat: initTime=0.095148651
%%%mzn-stat: objective=269
%%%mzn-stat: nodes=7529
%%%mzn-stat: restarts=0
%%%mzn-stat: peakDepth=2542
%%%mzn-stat: solveTime=0.260569097
%%%mzn-stat: variables=3325
%%%mzn-stat: propagators=2884
%%%mzn-stat: failures=48
%%%mzn-stat: propagations=21068
%%%mzn-stat: nogoods=48
%%%mzn-stat: numAtomicConstraintsPropagated=0
%%%mzn-stat: circuitNumber1PropagationsTotal=1084
%%%mzn-stat: circuitNumber1CircuitConflicts=30
%%%mzn-stat: circuitNumber1AlldiffConflicts=0
%%%mzn-stat: circuitNumber1TotalFixedEdgesAtConflict=3964
%%%mzn-stat: circuitNumber1NumberOfConflicts=30
%%%mzn-stat: circuitNumber1GacPrunings=4314
%%%mzn-stat: circuitNumber1PropagationsThatGacPruned=551
%%%mzn-stat: circuitNumber1TotalPruningHallSetSize=7109
%%%mzn-stat: circuitNumber1NumberOfPruningExplanations=4314
%%%mzn-stat: circuitNumber1MaxPruningHallSetSize=44
%%%mzn-stat: circuitNumber1TotalSccSizeAtPruning=2420
%%%mzn-stat: circuitNumber1NumberOfSccPruningCalls=551
%%%mzn-stat: circuitNumber1TotalVarsInvolvedInPruning=4116
%%%mzn-stat: circuitNumber1MaxValuesPrunedFromSingleVar=5
%%%mzn-stat: circuitNumber1HallCircuitChecks=2285
%%%mzn-stat: circuitNumber1HallCircuitPrunings=23
%%%mzn-stat: circuitNumber1CircuitPreventPrunings=272
%%%mzn-stat: AverageConflictSize=21.229166666666668
%%%mzn-stat: NumUnitNogoodsLearned=0
%%%mzn-stat: AverageLearnedNogoodLength=51.875
%%%mzn-stat: AverageBacktrackAmount=0
%%%mzn-stat: AverageLbd=35.3125
%%%mzn-stat: 2AutonomousSearchNumBackupCalled=7070
%%%mzn-stat: 2AutonomousSearchNumPredicatesRemoved=0
%%%mzn-stat: 2AutonomousSearchNumCalls=7073
%%%mzn-stat: 2AutonomousSearchNumPredicatesAdded=2097
%%%mzn-stat: 2AutonomousSearchAverageSizeOfHeap=0.4760356284462039
%%%mzn-stat: 2AutonomousSearchNumAssignedPredicatesEncountered=3367
%%%mzn-stat-end
maxleg = 269;
succ = array1d(1..150,[7, 12, 4, 11, 14, 22, 24, 21, 29, 19, 17, 27, 15, 16, 26, 28, 32, 13, 3, 18, 30, 20, 1, 5, 6, 33, 10, 51, 37, 23, 2, 40, 9, 35, 36, 8, 39, 25, 41, 45, 58, 34, 38, 55, 62, 50, 63, 42, 60, 54, 53, 43, 76, 57, 61, 31, 65, 66, 48, 64, 71, 49, 70, 90, 44, 100, 52, 56, 67, 68, 73, 59, 81, 75, 78, 91, 47, 102, 69, 77, 82, 92, 72, 83, 74, 46, 84, 86, 79, 94, 85, 109, 99, 98, 97, 80, 105, 103, 87, 106, 108, 127, 141, 138, 110, 119, 143, 96, 101, 115, 93, 120, 130, 132, 117, 95, 121, 107, 133, 147, 142, 128, 88, 123, 118, 116, 145, 146, 111, 135, 144, 134, 137, 131, 89, 112, 124, 139, 125, 126, 122, 129, 148, 140, 104, 149, 150, 136, 114, 113]);
% time elapsed: 17.54 s
----------
%%%mzn-stat: initTime=0.095148651
%%%mzn-stat: objective=268
%%%mzn-stat: nodes=9997
%%%mzn-stat: restarts=0
%%%mzn-stat: peakDepth=2542
%%%mzn-stat: solveTime=0.365052466
%%%mzn-stat: variables=3325
%%%mzn-stat: propagators=2884
%%%mzn-stat: failures=69
%%%mzn-stat: propagations=26980
%%%mzn-stat: nogoods=69
%%%mzn-stat: numAtomicConstraintsPropagated=0
%%%mzn-stat: circuitNumber1PropagationsTotal=1534
%%%mzn-stat: circuitNumber1CircuitConflicts=40
%%%mzn-stat: circuitNumber1AlldiffConflicts=1
%%%mzn-stat: circuitNumber1TotalFixedEdgesAtConflict=5435
%%%mzn-stat: circuitNumber1NumberOfConflicts=41
%%%mzn-stat: circuitNumber1GacPrunings=6006
%%%mzn-stat: circuitNumber1PropagationsThatGacPruned=788
%%%mzn-stat: circuitNumber1TotalPruningHallSetSize=11666
%%%mzn-stat: circuitNumber1NumberOfPruningExplanations=6006
%%%mzn-stat: circuitNumber1MaxPruningHallSetSize=61
%%%mzn-stat: circuitNumber1TotalSccSizeAtPruning=3688
%%%mzn-stat: circuitNumber1NumberOfSccPruningCalls=788
%%%mzn-stat: circuitNumber1TotalVarsInvolvedInPruning=5650
%%%mzn-stat: circuitNumber1MaxValuesPrunedFromSingleVar=6
%%%mzn-stat: circuitNumber1HallCircuitChecks=3491
%%%mzn-stat: circuitNumber1HallCircuitPrunings=48
%%%mzn-stat: circuitNumber1CircuitPreventPrunings=381
%%%mzn-stat: AverageConflictSize=16.231884057971016
%%%mzn-stat: NumUnitNogoodsLearned=0
%%%mzn-stat: AverageLearnedNogoodLength=46.27536231884058
%%%mzn-stat: AverageBacktrackAmount=0
%%%mzn-stat: AverageLbd=32.14492753623188
%%%mzn-stat: 2AutonomousSearchNumBackupCalled=9365
%%%mzn-stat: 2AutonomousSearchNumPredicatesRemoved=0
%%%mzn-stat: 2AutonomousSearchNumCalls=9369
%%%mzn-stat: 2AutonomousSearchNumPredicatesAdded=3026
%%%mzn-stat: 2AutonomousSearchAverageSizeOfHeap=0.5706051873198847
%%%mzn-stat: 2AutonomousSearchNumAssignedPredicatesEncountered=5346
%%%mzn-stat-end
maxleg = 268;
succ = array1d(1..150,[7, 12, 4, 11, 14, 22, 24, 21, 29, 19, 17, 27, 15, 16, 26, 28, 32, 13, 3, 18, 30, 20, 1, 5, 6, 33, 10, 51, 37, 23, 2, 40, 9, 35, 36, 8, 39, 25, 41, 45, 58, 34, 38, 55, 62, 50, 63, 42, 60, 54, 53, 43, 76, 57, 61, 31, 65, 66, 48, 64, 71, 49, 70, 90, 44, 100, 52, 56, 67, 68, 73, 59, 81, 75, 78, 91, 47, 102, 69, 77, 82, 92, 72, 83, 74, 46, 84, 86, 79, 94, 85, 109, 99, 98, 97, 80, 105, 103, 87, 106, 108, 127, 141, 145, 116, 122, 118, 96, 101, 95, 93, 120, 130, 132, 110, 126, 115, 111, 88, 147, 117, 128, 124, 137, 107, 140, 143, 146, 142, 135, 113, 134, 119, 123, 89, 129, 133, 139, 125, 144, 104, 121, 148, 112, 138, 149, 150, 136, 114, 131]);
% time elapsed: 17.67 s
----------
%%%mzn-stat: initTime=0.095148651
%%%mzn-stat: objective=267
%%%mzn-stat: nodes=12449
%%%mzn-stat: restarts=0
%%%mzn-stat: peakDepth=2542
%%%mzn-stat: solveTime=0.424243364
%%%mzn-stat: variables=3325
%%%mzn-stat: propagators=2884
%%%mzn-stat: failures=69
%%%mzn-stat: propagations=31713
%%%mzn-stat: nogoods=69
%%%mzn-stat: numAtomicConstraintsPropagated=0
%%%mzn-stat: circuitNumber1PropagationsTotal=1774
%%%mzn-stat: circuitNumber1CircuitConflicts=40
%%%mzn-stat: circuitNumber1AlldiffConflicts=1
%%%mzn-stat: circuitNumber1TotalFixedEdgesAtConflict=5435
%%%mzn-stat: circuitNumber1NumberOfConflicts=41
%%%mzn-stat: circuitNumber1GacPrunings=7230
%%%mzn-stat: circuitNumber1PropagationsThatGacPruned=908
%%%mzn-stat: circuitNumber1TotalPruningHallSetSize=13945
%%%mzn-stat: circuitNumber1NumberOfPruningExplanations=7230
%%%mzn-stat: circuitNumber1MaxPruningHallSetSize=61
%%%mzn-stat: circuitNumber1TotalSccSizeAtPruning=4104
%%%mzn-stat: circuitNumber1NumberOfSccPruningCalls=908
%%%mzn-stat: circuitNumber1TotalVarsInvolvedInPruning=6831
%%%mzn-stat: circuitNumber1MaxValuesPrunedFromSingleVar=6
%%%mzn-stat: circuitNumber1HallCircuitChecks=3795
%%%mzn-stat: circuitNumber1HallCircuitPrunings=51
%%%mzn-stat: circuitNumber1CircuitPreventPrunings=427
%%%mzn-stat: AverageConflictSize=16.231884057971016
%%%mzn-stat: NumUnitNogoodsLearned=0
%%%mzn-stat: AverageLearnedNogoodLength=46.27536231884058
%%%mzn-stat: AverageBacktrackAmount=0
%%%mzn-stat: AverageLbd=32.14492753623188
%%%mzn-stat: 2AutonomousSearchNumBackupCalled=11702
%%%mzn-stat: 2AutonomousSearchNumPredicatesRemoved=0
%%%mzn-stat: 2AutonomousSearchNumCalls=11707
%%%mzn-stat: 2AutonomousSearchNumPredicatesAdded=3026
%%%mzn-stat: 2AutonomousSearchAverageSizeOfHeap=0.6256940292132912
%%%mzn-stat: 2AutonomousSearchNumAssignedPredicatesEncountered=7325
%%%mzn-stat-end
maxleg = 267;
succ = array1d(1..150,[7, 12, 4, 11, 14, 22, 24, 21, 29, 19, 17, 27, 15, 16, 26, 28, 32, 13, 3, 18, 30, 20, 1, 5, 6, 33, 10, 51, 37, 23, 2, 40, 9, 35, 36, 8, 39, 25, 41, 45, 58, 34, 38, 55, 62, 50, 63, 42, 60, 54, 53, 43, 76, 57, 61, 31, 65, 66, 48, 64, 71, 49, 70, 90, 44, 100, 52, 56, 67, 68, 73, 59, 81, 75, 78, 91, 47, 102, 69, 77, 82, 92, 72, 83, 74, 46, 84, 86, 79, 94, 85, 109, 99, 98, 97, 80, 105, 103, 87, 106, 108, 127, 141, 145, 116, 122, 118, 96, 101, 95, 93, 120, 130, 132, 110, 126, 121, 111, 88, 147, 115, 128, 124, 137, 107, 140, 143, 146, 142, 135, 113, 134, 119, 123, 89, 129, 133, 139, 125, 144, 104, 117, 148, 112, 138, 149, 150, 136, 114, 131]);
% time elapsed: 17.74 s
----------
%%%mzn-stat: initTime=0.095148651
%%%mzn-stat: objective=252
%%%mzn-stat: nodes=14868
%%%mzn-stat: restarts=0
%%%mzn-stat: peakDepth=2542
%%%mzn-stat: solveTime=0.489450286
%%%mzn-stat: variables=3325
%%%mzn-stat: propagators=2884
%%%mzn-stat: failures=70
%%%mzn-stat: propagations=36573
%%%mzn-stat: nogoods=70
%%%mzn-stat: numAtomicConstraintsPropagated=0
%%%mzn-stat: circuitNumber1PropagationsTotal=2020
%%%mzn-stat: circuitNumber1CircuitConflicts=41
%%%mzn-stat: circuitNumber1AlldiffConflicts=1
%%%mzn-stat: circuitNumber1TotalFixedEdgesAtConflict=5553
%%%mzn-stat: circuitNumber1NumberOfConflicts=42
%%%mzn-stat: circuitNumber1GacPrunings=8472
%%%mzn-stat: circuitNumber1PropagationsThatGacPruned=1031
%%%mzn-stat: circuitNumber1TotalPruningHallSetSize=16273
%%%mzn-stat: circuitNumber1NumberOfPruningExplanations=8472
%%%mzn-stat: circuitNumber1MaxPruningHallSetSize=61
%%%mzn-stat: circuitNumber1TotalSccSizeAtPruning=4583
%%%mzn-stat: circuitNumber1NumberOfSccPruningCalls=1031
%%%mzn-stat: circuitNumber1TotalVarsInvolvedInPruning=8030
%%%mzn-stat: circuitNumber1MaxValuesPrunedFromSingleVar=6
%%%mzn-stat: circuitNumber1HallCircuitChecks=4119
%%%mzn-stat: circuitNumber1HallCircuitPrunings=55
%%%mzn-stat: circuitNumber1CircuitPreventPrunings=473
%%%mzn-stat: AverageConflictSize=16.02857142857143
%%%mzn-stat: NumUnitNogoodsLearned=0
%%%mzn-stat: AverageLearnedNogoodLength=47.42857142857143
%%%mzn-stat: AverageBacktrackAmount=0
%%%mzn-stat: AverageLbd=33.18571428571428
%%%mzn-stat: 2AutonomousSearchNumBackupCalled=14004
%%%mzn-stat: 2AutonomousSearchNumPredicatesRemoved=0
%%%mzn-stat: 2AutonomousSearchNumCalls=14010
%%%mzn-stat: 2AutonomousSearchNumPredicatesAdded=3302
%%%mzn-stat: 2AutonomousSearchAverageSizeOfHeap=0.6645253390435403
%%%mzn-stat: 2AutonomousSearchNumAssignedPredicatesEncountered=9310
%%%mzn-stat-end
maxleg = 252;
succ = array1d(1..150,[7, 12, 4, 11, 14, 22, 24, 21, 29, 19, 17, 27, 15, 16, 26, 28, 32, 13, 3, 18, 30, 20, 1, 5, 6, 33, 10, 51, 37, 23, 2, 40, 41, 35, 36, 8, 39, 25, 58, 45, 9, 34, 38, 55, 62, 50, 63, 42, 60, 54, 53, 43, 76, 57, 61, 31, 65, 71, 48, 64, 66, 49, 70, 90, 44, 100, 52, 56, 67, 68, 73, 59, 81, 75, 78, 91, 47, 102, 69, 77, 82, 92, 72, 83, 74, 46, 84, 86, 79, 94, 85, 88, 99, 98, 97, 80, 105, 103, 87, 106, 108, 127, 141, 145, 116, 122, 118, 96, 101, 95, 93, 120, 130, 132, 110, 126, 121, 111, 109, 147, 115, 128, 124, 137, 107, 140, 143, 146, 142, 135, 113, 134, 119, 123, 89, 129, 133, 139, 125, 144, 104, 117, 148, 112, 138, 149, 150, 136, 114, 131]);
% time elapsed: 17.80 s
----------
%%%mzn-stat: initTime=0.095148651
%%%mzn-stat: objective=244
%%%mzn-stat: nodes=71227
%%%mzn-stat: restarts=0
%%%mzn-stat: peakDepth=2542
%%%mzn-stat: solveTime=251.231602552
%%%mzn-stat: variables=3325
%%%mzn-stat: propagators=2884
%%%mzn-stat: failures=51865
%%%mzn-stat: propagations=1820642
%%%mzn-stat: nogoods=51865
%%%mzn-stat: numAtomicConstraintsPropagated=0
%%%mzn-stat: circuitNumber1PropagationsTotal=309705
%%%mzn-stat: circuitNumber1CircuitConflicts=34357
%%%mzn-stat: circuitNumber1AlldiffConflicts=79
%%%mzn-stat: circuitNumber1TotalFixedEdgesAtConflict=4867667
%%%mzn-stat: circuitNumber1NumberOfConflicts=34436
%%%mzn-stat: circuitNumber1GacPrunings=478949
%%%mzn-stat: circuitNumber1PropagationsThatGacPruned=195965
%%%mzn-stat: circuitNumber1TotalPruningHallSetSize=1091941
%%%mzn-stat: circuitNumber1NumberOfPruningExplanations=478949
%%%mzn-stat: circuitNumber1MaxPruningHallSetSize=61
%%%mzn-stat: circuitNumber1TotalSccSizeAtPruning=763548
%%%mzn-stat: circuitNumber1NumberOfSccPruningCalls=195965
%%%mzn-stat: circuitNumber1TotalVarsInvolvedInPruning=445817
%%%mzn-stat: circuitNumber1MaxValuesPrunedFromSingleVar=6
%%%mzn-stat: circuitNumber1HallCircuitChecks=889475
%%%mzn-stat: circuitNumber1HallCircuitPrunings=62314
%%%mzn-stat: circuitNumber1CircuitPreventPrunings=140979
%%%mzn-stat: AverageConflictSize=38.77289115974164
%%%mzn-stat: NumUnitNogoodsLearned=0
%%%mzn-stat: AverageLearnedNogoodLength=131.11402680034706
%%%mzn-stat: AverageBacktrackAmount=0
%%%mzn-stat: AverageLbd=110.40595777499277
%%%mzn-stat: 2AutonomousSearchNumBackupCalled=16213
%%%mzn-stat: 2AutonomousSearchNumPredicatesRemoved=0
%%%mzn-stat: 2AutonomousSearchNumCalls=16220
%%%mzn-stat: 2AutonomousSearchNumPredicatesAdded=6278
%%%mzn-stat: 2AutonomousSearchAverageSizeOfHeap=0.7889025893958076
%%%mzn-stat: 2AutonomousSearchNumAssignedPredicatesEncountered=12796
%%%mzn-stat-end
maxleg = 244;
succ = array1d(1..150,[7, 12, 4, 11, 14, 22, 24, 21, 29, 19, 17, 27, 15, 16, 26, 28, 32, 13, 3, 18, 30, 20, 1, 5, 6, 33, 10, 51, 37, 23, 2, 40, 41, 35, 36, 8, 39, 25, 58, 45, 71, 34, 38, 9, 62, 50, 63, 42, 60, 54, 53, 43, 76, 57, 44, 31, 65, 73, 48, 64, 55, 49, 70, 90, 86, 61, 52, 56, 67, 68, 81, 59, 82, 75, 78, 91, 47, 102, 69, 77, 98, 92, 72, 83, 74, 88, 84, 119, 79, 94, 85, 46, 99, 103, 97, 80, 105, 120, 95, 66, 108, 127, 141, 138, 116, 100, 143, 96, 101, 115, 93, 144, 130, 109, 117, 126, 121, 107, 133, 147, 87, 106, 113, 123, 118, 140, 145, 122, 111, 135, 134, 149, 137, 150, 89, 142, 124, 139, 125, 131, 146, 129, 148, 110, 104, 128, 112, 136, 114, 132]);
% time elapsed: 268.55 s
----------
%%%mzn-stat: initTime=0.095148651
%%%mzn-stat: objective=239
%%%mzn-stat: nodes=73567
%%%mzn-stat: restarts=0
%%%mzn-stat: peakDepth=2542
%%%mzn-stat: solveTime=251.305261317
%%%mzn-stat: variables=3325
%%%mzn-stat: propagators=2884
%%%mzn-stat: failures=51870
%%%mzn-stat: propagations=1825613
%%%mzn-stat: nogoods=51870
%%%mzn-stat: numAtomicConstraintsPropagated=0
%%%mzn-stat: circuitNumber1PropagationsTotal=309969
%%%mzn-stat: circuitNumber1CircuitConflicts=34361
%%%mzn-stat: circuitNumber1AlldiffConflicts=79
%%%mzn-stat: circuitNumber1TotalFixedEdgesAtConflict=4868129
%%%mzn-stat: circuitNumber1NumberOfConflicts=34440
%%%mzn-stat: circuitNumber1GacPrunings=480185
%%%mzn-stat: circuitNumber1PropagationsThatGacPruned=196098
%%%mzn-stat: circuitNumber1TotalPruningHallSetSize=1095094
%%%mzn-stat: circuitNumber1NumberOfPruningExplanations=480185
%%%mzn-stat: circuitNumber1MaxPruningHallSetSize=107
%%%mzn-stat: circuitNumber1TotalSccSizeAtPruning=764719
%%%mzn-stat: circuitNumber1NumberOfSccPruningCalls=196098
%%%mzn-stat: circuitNumber1TotalVarsInvolvedInPruning=446999
%%%mzn-stat: circuitNumber1MaxValuesPrunedFromSingleVar=8
%%%mzn-stat: circuitNumber1HallCircuitChecks=889820
%%%mzn-stat: circuitNumber1HallCircuitPrunings=62318
%%%mzn-stat: circuitNumber1CircuitPreventPrunings=141034
%%%mzn-stat: AverageConflictSize=38.7693657219973
%%%mzn-stat: NumUnitNogoodsLearned=0
%%%mzn-stat: AverageLearnedNogoodLength=131.10761519182572
%%%mzn-stat: AverageBacktrackAmount=0
%%%mzn-stat: AverageLbd=110.39766724503566
%%%mzn-stat: 2AutonomousSearchNumBackupCalled=18431
%%%mzn-stat: 2AutonomousSearchNumPredicatesRemoved=0
%%%mzn-stat: 2AutonomousSearchNumCalls=18439
%%%mzn-stat: 2AutonomousSearchNumPredicatesAdded=6672
%%%mzn-stat: 2AutonomousSearchAverageSizeOfHeap=0.8844297413091816
%%%mzn-stat: 2AutonomousSearchNumAssignedPredicatesEncountered=16308
%%%mzn-stat-end
maxleg = 239;
succ = array1d(1..150,[7, 12, 4, 11, 14, 22, 24, 21, 29, 19, 17, 27, 15, 16, 26, 28, 32, 13, 3, 18, 30, 20, 1, 5, 6, 33, 10, 51, 37, 23, 2, 40, 41, 35, 36, 8, 39, 25, 58, 45, 71, 34, 38, 9, 62, 50, 63, 42, 60, 54, 53, 67, 76, 57, 44, 31, 65, 73, 48, 64, 55, 49, 70, 90, 86, 61, 69, 56, 79, 68, 81, 59, 82, 75, 78, 91, 47, 102, 89, 77, 98, 92, 72, 83, 74, 88, 84, 119, 135, 94, 85, 46, 99, 103, 52, 80, 95, 120, 105, 66, 108, 127, 141, 138, 97, 100, 143, 113, 101, 115, 93, 129, 130, 109, 117, 110, 121, 107, 133, 147, 87, 106, 134, 123, 118, 116, 145, 122, 142, 96, 144, 149, 137, 131, 43, 112, 124, 139, 125, 126, 146, 111, 148, 140, 104, 128, 150, 136, 114, 132]);
% time elapsed: 268.64 s
----------
%%%mzn-stat: initTime=0.095148651
%%%mzn-stat: objective=238
%%%mzn-stat: nodes=75946
%%%mzn-stat: restarts=0
%%%mzn-stat: peakDepth=2542
%%%mzn-stat: solveTime=251.391748804
%%%mzn-stat: variables=3325
%%%mzn-stat: propagators=2884
%%%mzn-stat: failures=51876
%%%mzn-stat: propagations=1830619
%%%mzn-stat: nogoods=51876
%%%mzn-stat: numAtomicConstraintsPropagated=0
%%%mzn-stat: circuitNumber1PropagationsTotal=310255
%%%mzn-stat: circuitNumber1CircuitConflicts=34367
%%%mzn-stat: circuitNumber1AlldiffConflicts=79
%%%mzn-stat: circuitNumber1TotalFixedEdgesAtConflict=4868827
%%%mzn-stat: circuitNumber1NumberOfConflicts=34446
%%%mzn-stat: circuitNumber1GacPrunings=481439
%%%mzn-stat: circuitNumber1PropagationsThatGacPruned=196240
%%%mzn-stat: circuitNumber1TotalPruningHallSetSize=1098371
%%%mzn-stat: circuitNumber1NumberOfPruningExplanations=481439
%%%mzn-stat: circuitNumber1MaxPruningHallSetSize=107
%%%mzn-stat: circuitNumber1TotalSccSizeAtPruning=765849
%%%mzn-stat: circuitNumber1NumberOfSccPruningCalls=196240
%%%mzn-stat: circuitNumber1TotalVarsInvolvedInPruning=448200
%%%mzn-stat: circuitNumber1MaxValuesPrunedFromSingleVar=8
%%%mzn-stat: circuitNumber1HallCircuitChecks=890258
%%%mzn-stat: circuitNumber1HallCircuitPrunings=62325
%%%mzn-stat: circuitNumber1CircuitPreventPrunings=141095
%%%mzn-stat: AverageConflictSize=38.765151515151516
%%%mzn-stat: NumUnitNogoodsLearned=0
%%%mzn-stat: AverageLearnedNogoodLength=131.098349911327
%%%mzn-stat: AverageBacktrackAmount=0
%%%mzn-stat: AverageLbd=110.3871925360475
%%%mzn-stat: 2AutonomousSearchNumBackupCalled=20683
%%%mzn-stat: 2AutonomousSearchNumPredicatesRemoved=0
%%%mzn-stat: 2AutonomousSearchNumCalls=20692
%%%mzn-stat: 2AutonomousSearchNumPredicatesAdded=7133
%%%mzn-stat: 2AutonomousSearchAverageSizeOfHeap=0.9598395515174947
%%%mzn-stat: 2AutonomousSearchNumAssignedPredicatesEncountered=19861
%%%mzn-stat-end
maxleg = 238;
succ = array1d(1..150,[7, 12, 4, 11, 14, 22, 24, 21, 29, 19, 17, 27, 15, 16, 26, 28, 32, 13, 3, 18, 30, 20, 1, 5, 6, 33, 10, 51, 37, 23, 2, 40, 41, 35, 36, 8, 39, 25, 58, 45, 71, 34, 38, 9, 62, 50, 63, 42, 60, 54, 53, 67, 76, 57, 44, 31, 65, 73, 48, 64, 55, 49, 70, 90, 86, 61, 69, 56, 79, 68, 81, 59, 82, 75, 78, 91, 47, 102, 89, 77, 98, 92, 72, 83, 74, 88, 84, 119, 135, 94, 85, 46, 99, 103, 52, 80, 95, 120, 105, 66, 108, 127, 146, 138, 97, 100, 143, 113, 101, 115, 93, 129, 130, 109, 117, 110, 121, 107, 133, 147, 87, 106, 134, 123, 118, 116, 145, 122, 142, 96, 144, 149, 137, 131, 43, 112, 124, 139, 125, 126, 128, 111, 148, 140, 104, 141, 150, 136, 114, 132]);
% time elapsed: 268.74 s
----------
%%%mzn-stat: initTime=0.095148651
%%%mzn-stat: objective=237
%%%mzn-stat: nodes=78265
%%%mzn-stat: restarts=0
%%%mzn-stat: peakDepth=2542
%%%mzn-stat: solveTime=251.46090781
%%%mzn-stat: variables=3325
%%%mzn-stat: propagators=2884
%%%mzn-stat: failures=51876
%%%mzn-stat: propagations=1835391
%%%mzn-stat: nogoods=51876
%%%mzn-stat: numAtomicConstraintsPropagated=0
%%%mzn-stat: circuitNumber1PropagationsTotal=310506
%%%mzn-stat: circuitNumber1CircuitConflicts=34367
%%%mzn-stat: circuitNumber1AlldiffConflicts=79
%%%mzn-stat: circuitNumber1TotalFixedEdgesAtConflict=4868827
%%%mzn-stat: circuitNumber1NumberOfConflicts=34446
%%%mzn-stat: circuitNumber1GacPrunings=482600
%%%mzn-stat: circuitNumber1PropagationsThatGacPruned=196367
%%%mzn-stat: circuitNumber1TotalPruningHallSetSize=1100893
%%%mzn-stat: circuitNumber1NumberOfPruningExplanations=482600
%%%mzn-stat: circuitNumber1MaxPruningHallSetSize=107
%%%mzn-stat: circuitNumber1TotalSccSizeAtPruning=766576
%%%mzn-stat: circuitNumber1NumberOfSccPruningCalls=196367
%%%mzn-stat: circuitNumber1TotalVarsInvolvedInPruning=449338
%%%mzn-stat: circuitNumber1MaxValuesPrunedFromSingleVar=8
%%%mzn-stat: circuitNumber1HallCircuitChecks=890612
%%%mzn-stat: circuitNumber1HallCircuitPrunings=62331
%%%mzn-stat: circuitNumber1CircuitPreventPrunings=141148
%%%mzn-stat: AverageConflictSize=38.765151515151516
%%%mzn-stat: NumUnitNogoodsLearned=0
%%%mzn-stat: AverageLearnedNogoodLength=131.098349911327
%%%mzn-stat: AverageBacktrackAmount=0
%%%mzn-stat: AverageLbd=110.3871925360475
%%%mzn-stat: 2AutonomousSearchNumBackupCalled=22886
%%%mzn-stat: 2AutonomousSearchNumPredicatesRemoved=0
%%%mzn-stat: 2AutonomousSearchNumCalls=22896
%%%mzn-stat: 2AutonomousSearchNumPredicatesAdded=7133
%%%mzn-stat: 2AutonomousSearchAverageSizeOfHeap=1.022624039133473
%%%mzn-stat: 2AutonomousSearchNumAssignedPredicatesEncountered=23414
%%%mzn-stat-end
maxleg = 237;
succ = array1d(1..150,[7, 12, 4, 11, 14, 22, 24, 21, 29, 19, 17, 27, 15, 16, 26, 28, 32, 13, 3, 18, 30, 20, 1, 5, 6, 33, 10, 51, 37, 23, 2, 40, 41, 35, 36, 8, 39, 25, 58, 45, 71, 34, 38, 55, 62, 50, 63, 42, 60, 54, 53, 67, 76, 57, 9, 31, 65, 73, 48, 64, 44, 49, 70, 90, 86, 61, 69, 56, 79, 68, 81, 59, 82, 75, 78, 91, 47, 102, 89, 77, 98, 92, 72, 83, 74, 88, 84, 119, 135, 94, 85, 46, 99, 103, 52, 80, 95, 120, 105, 66, 108, 127, 146, 138, 97, 100, 143, 113, 101, 115, 93, 129, 130, 109, 117, 110, 121, 107, 133, 147, 87, 106, 134, 123, 118, 116, 145, 122, 142, 96, 144, 149, 137, 131, 43, 112, 124, 139, 125, 126, 128, 111, 148, 140, 104, 141, 150, 136, 114, 132]);
% time elapsed: 268.82 s
----------
%%%mzn-stat: initTime=0.095148651
%%%mzn-stat: objective=233
%%%mzn-stat: nodes=140861
%%%mzn-stat: restarts=0
%%%mzn-stat: peakDepth=2542
%%%mzn-stat: solveTime=387.019868239
%%%mzn-stat: variables=3325
%%%mzn-stat: propagators=2884
%%%mzn-stat: failures=112138
%%%mzn-stat: propagations=3680719
%%%mzn-stat: nogoods=112138
%%%mzn-stat: numAtomicConstraintsPropagated=0
%%%mzn-stat: circuitNumber1PropagationsTotal=600916
%%%mzn-stat: circuitNumber1CircuitConflicts=52320
%%%mzn-stat: circuitNumber1AlldiffConflicts=123
%%%mzn-stat: circuitNumber1TotalFixedEdgesAtConflict=6878217
%%%mzn-stat: circuitNumber1NumberOfConflicts=52443
%%%mzn-stat: circuitNumber1GacPrunings=1494819
%%%mzn-stat: circuitNumber1PropagationsThatGacPruned=381684
%%%mzn-stat: circuitNumber1TotalPruningHallSetSize=10535601
%%%mzn-stat: circuitNumber1NumberOfPruningExplanations=1494819
%%%mzn-stat: circuitNumber1MaxPruningHallSetSize=107
%%%mzn-stat: circuitNumber1TotalSccSizeAtPruning=6364016
%%%mzn-stat: circuitNumber1NumberOfSccPruningCalls=381684
%%%mzn-stat: circuitNumber1TotalVarsInvolvedInPruning=1255944
%%%mzn-stat: circuitNumber1MaxValuesPrunedFromSingleVar=8
%%%mzn-stat: circuitNumber1HallCircuitChecks=1689454
%%%mzn-stat: circuitNumber1HallCircuitPrunings=81906
%%%mzn-stat: circuitNumber1CircuitPreventPrunings=302998
%%%mzn-stat: AverageConflictSize=22.867582799764577
%%%mzn-stat: NumUnitNogoodsLearned=0
%%%mzn-stat: AverageLearnedNogoodLength=108.41688811999501
%%%mzn-stat: AverageBacktrackAmount=0
%%%mzn-stat: AverageLbd=66.28851058517184
%%%mzn-stat: 2AutonomousSearchNumBackupCalled=25079
%%%mzn-stat: 2AutonomousSearchNumPredicatesRemoved=0
%%%mzn-stat: 2AutonomousSearchNumCalls=25090
%%%mzn-stat: 2AutonomousSearchNumPredicatesAdded=10277
%%%mzn-stat: 2AutonomousSearchAverageSizeOfHeap=1.1416102032682343
%%%mzn-stat: 2AutonomousSearchNumAssignedPredicatesEncountered=28643
%%%mzn-stat-end
maxleg = 233;
succ = array1d(1..150,[7, 12, 4, 11, 14, 22, 24, 21, 29, 19, 17, 27, 15, 16, 26, 28, 32, 13, 3, 18, 30, 20, 1, 5, 6, 33, 10, 51, 37, 23, 2, 40, 41, 35, 36, 8, 39, 25, 58, 45, 71, 34, 38, 55, 62, 50, 63, 42, 60, 54, 53, 67, 76, 57, 9, 68, 65, 73, 48, 64, 44, 49, 70, 90, 86, 61, 69, 31, 79, 56, 81, 59, 82, 75, 78, 91, 47, 102, 89, 77, 98, 92, 72, 83, 74, 88, 84, 119, 135, 94, 85, 46, 99, 104, 52, 80, 95, 103, 105, 66, 108, 127, 146, 145, 97, 100, 118, 113, 101, 115, 93, 120, 130, 109, 117, 110, 121, 111, 133, 147, 87, 106, 134, 123, 107, 116, 143, 122, 112, 96, 144, 149, 137, 131, 43, 142, 124, 139, 125, 126, 128, 129, 148, 140, 138, 141, 150, 136, 114, 132]);
% time elapsed: 404.39 s
----------
%%%mzn-stat: initTime=0.095148651
%%%mzn-stat: objective=232
%%%mzn-stat: nodes=143175
%%%mzn-stat: restarts=0
%%%mzn-stat: peakDepth=2542
%%%mzn-stat: solveTime=387.088338726
%%%mzn-stat: variables=3325
%%%mzn-stat: propagators=2884
%%%mzn-stat: failures=112138
%%%mzn-stat: propagations=3685534
%%%mzn-stat: nogoods=112138
%%%mzn-stat: numAtomicConstraintsPropagated=0
%%%mzn-stat: circuitNumber1PropagationsTotal=601162
%%%mzn-stat: circuitNumber1CircuitConflicts=52320
%%%mzn-stat: circuitNumber1AlldiffConflicts=123
%%%mzn-stat: circuitNumber1TotalFixedEdgesAtConflict=6878217
%%%mzn-stat: circuitNumber1NumberOfConflicts=52443
%%%mzn-stat: circuitNumber1GacPrunings=1495976
%%%mzn-stat: circuitNumber1PropagationsThatGacPruned=381806
%%%mzn-stat: circuitNumber1TotalPruningHallSetSize=10538130
%%%mzn-stat: circuitNumber1NumberOfPruningExplanations=1495976
%%%mzn-stat: circuitNumber1MaxPruningHallSetSize=107
%%%mzn-stat: circuitNumber1TotalSccSizeAtPruning=6364697
%%%mzn-stat: circuitNumber1NumberOfSccPruningCalls=381806
%%%mzn-stat: circuitNumber1TotalVarsInvolvedInPruning=1257067
%%%mzn-stat: circuitNumber1MaxValuesPrunedFromSingleVar=8
%%%mzn-stat: circuitNumber1HallCircuitChecks=1689908
%%%mzn-stat: circuitNumber1HallCircuitPrunings=81912
%%%mzn-stat: circuitNumber1CircuitPreventPrunings=303045
%%%mzn-stat: AverageConflictSize=22.867582799764577
%%%mzn-stat: NumUnitNogoodsLearned=0
%%%mzn-stat: AverageLearnedNogoodLength=108.41688811999501
%%%mzn-stat: AverageBacktrackAmount=0
%%%mzn-stat: AverageLbd=66.28851058517184
%%%mzn-stat: 2AutonomousSearchNumBackupCalled=27278
%%%mzn-stat: 2AutonomousSearchNumPredicatesRemoved=0
%%%mzn-stat: 2AutonomousSearchNumCalls=27290
%%%mzn-stat: 2AutonomousSearchNumPredicatesAdded=10277
%%%mzn-stat: 2AutonomousSearchAverageSizeOfHeap=1.2411872480762185
%%%mzn-stat: 2AutonomousSearchNumAssignedPredicatesEncountered=33872
%%%mzn-stat-end
maxleg = 232;
succ = array1d(1..150,[7, 12, 4, 11, 14, 22, 24, 21, 29, 19, 17, 27, 15, 16, 26, 28, 32, 13, 3, 18, 30, 20, 1, 5, 6, 33, 10, 51, 37, 23, 2, 40, 41, 35, 36, 8, 39, 25, 58, 45, 71, 34, 38, 55, 62, 50, 63, 42, 60, 54, 53, 67, 76, 57, 9, 68, 65, 73, 48, 64, 44, 49, 70, 90, 86, 61, 69, 31, 79, 56, 81, 59, 82, 75, 78, 91, 47, 102, 89, 77, 98, 92, 72, 83, 74, 88, 84, 119, 135, 94, 85, 46, 99, 104, 52, 80, 95, 103, 105, 66, 108, 127, 146, 145, 97, 100, 118, 113, 101, 115, 129, 120, 130, 109, 117, 110, 121, 111, 133, 147, 87, 106, 134, 123, 107, 116, 143, 122, 112, 96, 144, 149, 137, 132, 43, 142, 124, 139, 125, 126, 128, 93, 148, 140, 138, 141, 150, 136, 114, 131]);
% time elapsed: 404.49 s
----------
%%%mzn-stat: initTime=0.095148651
%%%mzn-stat: objective=230
%%%mzn-stat: nodes=149290
%%%mzn-stat: restarts=0
%%%mzn-stat: peakDepth=2542
%%%mzn-stat: solveTime=396.298580832
%%%mzn-stat: variables=3325
%%%mzn-stat: propagators=2884
%%%mzn-stat: failures=115860
%%%mzn-stat: propagations=3800995
%%%mzn-stat: nogoods=115860
%%%mzn-stat: numAtomicConstraintsPropagated=0
%%%mzn-stat: circuitNumber1PropagationsTotal=618627
%%%mzn-stat: circuitNumber1CircuitConflicts=53409
%%%mzn-stat: circuitNumber1AlldiffConflicts=123
%%%mzn-stat: circuitNumber1TotalFixedEdgesAtConflict=6998832
%%%mzn-stat: circuitNumber1NumberOfConflicts=53532
%%%mzn-stat: circuitNumber1GacPrunings=1565550
%%%mzn-stat: circuitNumber1PropagationsThatGacPruned=392681
%%%mzn-stat: circuitNumber1TotalPruningHallSetSize=11337948
%%%mzn-stat: circuitNumber1NumberOfPruningExplanations=1565550
%%%mzn-stat: circuitNumber1MaxPruningHallSetSize=107
%%%mzn-stat: circuitNumber1TotalSccSizeAtPruning=6736853
%%%mzn-stat: circuitNumber1NumberOfSccPruningCalls=392681
%%%mzn-stat: circuitNumber1TotalVarsInvolvedInPruning=1312004
%%%mzn-stat: circuitNumber1MaxValuesPrunedFromSingleVar=8
%%%mzn-stat: circuitNumber1HallCircuitChecks=1723840
%%%mzn-stat: circuitNumber1HallCircuitPrunings=82669
%%%mzn-stat: circuitNumber1CircuitPreventPrunings=311907
%%%mzn-stat: AverageConflictSize=22.365147591921286
%%%mzn-stat: NumUnitNogoodsLearned=0
%%%mzn-stat: AverageLearnedNogoodLength=108.04160193336786
%%%mzn-stat: AverageBacktrackAmount=0
%%%mzn-stat: AverageLbd=65.05353875366822
%%%mzn-stat: 2AutonomousSearchNumBackupCalled=29496
%%%mzn-stat: 2AutonomousSearchNumPredicatesRemoved=0
%%%mzn-stat: 2AutonomousSearchNumCalls=29509
%%%mzn-stat: 2AutonomousSearchNumPredicatesAdded=13776
%%%mzn-stat: 2AutonomousSearchAverageSizeOfHeap=1.3558914229557084
%%%mzn-stat: 2AutonomousSearchNumAssignedPredicatesEncountered=40011
%%%mzn-stat-end
maxleg = 230;
succ = array1d(1..150,[7, 12, 4, 11, 14, 22, 24, 21, 29, 19, 17, 27, 15, 16, 26, 28, 32, 13, 3, 18, 30, 20, 1, 5, 6, 33, 36, 51, 37, 23, 2, 40, 41, 10, 34, 8, 39, 25, 58, 45, 71, 48, 38, 55, 62, 50, 63, 59, 60, 54, 53, 67, 76, 57, 9, 42, 65, 73, 35, 64, 44, 49, 70, 90, 86, 61, 69, 31, 79, 56, 81, 83, 82, 75, 78, 91, 47, 102, 89, 77, 98, 92, 84, 87, 74, 88, 99, 119, 135, 94, 104, 46, 112, 103, 52, 80, 68, 120, 95, 66, 108, 127, 146, 138, 97, 100, 125, 113, 101, 115, 129, 144, 130, 109, 121, 105, 72, 111, 133, 147, 117, 106, 134, 123, 139, 110, 143, 122, 136, 96, 116, 149, 137, 131, 43, 142, 124, 145, 118, 126, 128, 93, 148, 140, 85, 141, 150, 107, 114, 132]);
% time elapsed: 413.71 s
----------
